62 4
13 11 12 13
0 0 0 0 0 3 2 3 4
8 10 0 0 0 3 5 10 15
1 0 1 0 0 3 7 14 29
10 0 9 0 0 3 8 12 16
6 0 4 0 0 3 6 22 24
5 0 0 0 1 2 17 38
8 10 0 0 0 1 23
9 0 0 6 0 3 9 20 40
1 0 0 0 8 2 13 35
9 0 6 0 0 2 11 45
8 0 0 0 3 3 26 37 44
3 0 7 0 0 2 21 27
6 8 0 0 0 1 18
2 0 0 0 1 3 18 19 34
5 0 0 0 9 2 25 59
1 6 0 0 0 2 55 58
3 2 0 0 0 2 32 43
10 0 0 2 0 2 28 33
9 7 0 0 0 1 28
1 5 0 0 0 2 27 31
3 0 0 8 0 1 39
6 0 4 0 0 1 31
3 0 0 4 0 1 51
3 0 5 0 0 1 48
7 0 0 1 0 1 40
6 9 0 0 0 2 49 54
10 0 7 0 0 2 30 51
9 3 0 0 0 2 47 61
8 0 0 3 0 2 41 57
4 0 0 7 0 1 56
3 6 0 0 0 1 43
3 0 0 0 4 1 57
6 0 7 0 0 1 39
1 0 0 0 4 1 44
9 0 0 1 0 2 36 39
9 9 0 0 0 1 42
1 0 7 0 0 1 58
2 5 0 0 0 2 50 60
4 0 0 1 0 1 53
9 0 0 0 5 1 53
10 0 0 0 1 1 46
8 0 0 0 9 1 48
4 0 0 6 0 2 51 58
3 0 0 0 1 1 50
6 0 0 0 9 1 53
6 0 0 0 7 1 56
7 4 0 0 0 1 52
3 0 8 0 0 1 55
2 0 2 0 0 1 60
10 0 0 7 0 1 61
4 0 5 0 0 1 60
2 2 0 0 0 1 54
1 0 1 0 0 1 56
4 0 0 6 0 1 55
10 0 0 0 7 1 57
8 0 0 3 0 1 61
6 0 4 0 0 1 59
10 0 0 9 0 1 59
3 0 0 0 7 1 62
10 0 3 0 0 1 62
1 0 0 0 1 1 62
0 0 0 0 0 0
